Gurobi Optimizer version 9.1.2 build v9.1.2rc0 (linux64)
Thread count: 36 physical cores, 72 logical processors, using up to 32 threads
Optimize a model with 12 rows, 57 columns and 590 nonzeros
Model fingerprint: 0xf32eec78
Model has 47 quadratic constraints
Coefficient statistics:
  Matrix range     [2e-05, 3e+00]
  QMatrix range    [1e+00, 1e+00]
  QLMatrix range   [1e+00, 1e+00]
  Objective range  [8e-03, 7e-01]
  Bounds range     [1e+00, 1e+00]
  RHS range        [1e+00, 1e+00]
Presolve removed 9 rows and 0 columns

Continuous model is non-convex -- solving as a MIP.

Presolve removed 9 rows and 0 columns
Presolve time: 0.00s
Presolved: 189 rows, 57 columns, 443 nonzeros
Presolved model has 47 bilinear constraint(s)
Variable types: 57 continuous, 0 integer (0 binary)

Root relaxation: objective -1.743721e+00, 44 iterations, 0.00 seconds

    Nodes    |    Current Node    |     Objective Bounds      |     Work
 Expl Unexpl |  Obj  Depth IntInf | Incumbent    BestBd   Gap | It/Node Time

     0     0   -1.74372    0   38          -   -1.74372      -     -    0s
H    0     0                       0.6147548   -1.74372   384%     -    0s
     0     0   -1.64739    0    1    0.61475   -1.64739   368%     -    0s
H    0     0                      -1.6450460   -1.64739  0.14%     -    0s
     0     0     cutoff    0        -1.64505   -1.64505  0.00%     -    0s

Cutting planes:
  RLT: 25
  BQP: 3

Explored 1 nodes (76 simplex iterations) in 0.01 seconds
Thread count was 32 (of 72 available processors)

Solution count 2: -1.64505 0.614755 
No other solutions better than -1.64505

Optimal solution found (tolerance 1.00e-04)
Best objective -1.645045978473e+00, best bound -1.645045978473e+00, gap 0.0000%

User-callback calls 78, time in user-callback 0.00 sec
Gurobi Optimizer version 9.1.2 build v9.1.2rc0 (linux64)
Thread count: 36 physical cores, 72 logical processors, using up to 32 threads
Optimize a model with 24 rows, 120 columns and 2480 nonzeros
Model fingerprint: 0x50f98682
Model has 100 quadratic constraints
Coefficient statistics:
  Matrix range     [8e-06, 4e+00]
  QMatrix range    [1e+00, 1e+00]
  QLMatrix range   [1e+00, 1e+00]
  Objective range  [1e-02, 2e+00]
  Bounds range     [1e+00, 1e+00]
  RHS range        [1e+00, 1e+00]
Presolve removed 16 rows and 0 columns

Continuous model is non-convex -- solving as a MIP.

Presolve removed 16 rows and 0 columns
Presolve time: 0.00s
Presolved: 408 rows, 120 columns, 1351 nonzeros
Presolved model has 100 bilinear constraint(s)
Variable types: 120 continuous, 0 integer (0 binary)

Root relaxation: objective -1.373416e+01, 121 iterations, 0.00 seconds

    Nodes    |    Current Node    |     Objective Bounds      |     Work
 Expl Unexpl |  Obj  Depth IntInf | Incumbent    BestBd   Gap | It/Node Time

     0     0  -13.73416    0   84          -  -13.73416      -     -    0s
H    0     0                       1.3579330  -13.73416  1111%     -    0s
     0     0   -9.73486    0  100    1.35793   -9.73486   817%     -    0s
     0     0   -8.57737    0   90    1.35793   -8.57737   732%     -    0s
H    0     0                       0.0298118   -8.57737      -     -    0s
     0     0   -8.53202    0   90    0.02981   -8.53202      -     -    0s
     0     0   -8.21134    0   90    0.02981   -8.21134      -     -    0s
H    0     0                      -0.1874702   -8.21134  4280%     -    0s
     0     0   -8.16662    0   90   -0.18747   -8.16662  4256%     -    0s
     0     0   -8.08608    0   90   -0.18747   -8.08608  4213%     -    0s
H    0     0                      -1.0459077   -8.08608   673%     -    0s
     0     0   -8.08210    0   90   -1.04591   -8.08210   673%     -    0s
     0     0   -8.00752    0   90   -1.04591   -8.00752   666%     -    0s
     0     0   -8.00161    0   90   -1.04591   -8.00161   665%     -    0s
     0     0   -7.99680    0   90   -1.04591   -7.99680   665%     -    0s
     0     0   -7.99574    0   90   -1.04591   -7.99574   664%     -    0s
     0     0   -7.99357    0   90   -1.04591   -7.99357   664%     -    0s
H    0     0                      -1.1692671   -7.99357   584%     -    0s
H    0     0                      -4.5075013   -7.99357  77.3%     -    0s
H    0     0                      -4.5726075   -7.99357  74.8%     -    0s
     0     2   -7.99357    0   90   -4.57261   -7.99357  74.8%     -    0s
* 1099  1082              39      -5.3806494   -7.24122  34.6%  32.9    0s
* 1207  1082              20      -6.2461330   -7.24122  15.9%  31.8    0s
* 1372   962              36      -6.2602371   -6.86918  9.73%  30.6    0s
* 1510   962              20      -6.2604275   -6.86918  9.72%  29.6    0s
* 1783   865              19      -6.2611398   -6.48355  3.55%  28.0    0s
* 1805   865              15      -6.2742446   -6.48355  3.34%  27.8    0s
* 1981  1060              25      -6.2911051   -6.48355  3.06%  26.8    0s
* 2010  1060              20      -6.3327271   -6.48355  2.38%  26.5    0s
* 2291  1210              27      -6.3532928   -6.44478  1.44%  24.8    0s
* 2340  1210              19      -6.4271097   -6.44478  0.27%  24.5    0s

Cutting planes:
  RLT: 72
  BQP: 11
  PSD: 21

Explored 3226 nodes (62442 simplex iterations) in 0.70 seconds
Thread count was 32 (of 72 available processors)

Solution count 10: -6.42711 -6.35329 -6.33273 ... -5.38065
No other solutions better than -6.42711

Optimal solution found (tolerance 1.00e-04)
Best objective -6.427109748039e+00, best bound -6.427109748039e+00, gap 0.0000%

User-callback calls 6761, time in user-callback 0.00 sec



objective value: -6.427109748039033
objective bound: -6.427109748039033
x_opt: [0.0, 1.0, 1.0, 1.0, 1.0, 0.0, 0.0, 0.0, 0.27949787421281724, 1.0, 0.0, 0.22515607155294054, 1.0, 1.0, 1.0, 0.0, 0.0, 0.0, 0.05310076721327942, 0.49492078806578055]
GUROBI solution time: 0.7018470764160156




